40952.16,67.51,81.87
50418.1,54.83,66.5
50086.09,55.2,66.94
44950.86,61.5,74.58
45400.49,60.89,73.84
47889.66,57.73,70.01
48426.6,57.09,69.23
42294.75,65.36,79.27
44303.27,62.4,75.67
43853.54,63.04,76.45
42757.92,64.66,78.41
44440.74,62.21,75.44
47211.03,58.56,71.01
44544.49,62.06,75.26
47584.29,58.1,70.46
43683.25,63.29,76.75
54526.68,50.7,61.49
48720.49,56.74,68.81
45504.9,60.75,73.68
47570.34,58.12,70.48
